
******************************************************************************
This program contains Ipopt, a library for large-scale nonlinear optimization.
 Ipopt is released as open source code under the Eclipse Public License (EPL).
         For more information visit http://projects.coin-or.org/Ipopt
******************************************************************************

This is Ipopt version 3.12.6, running with linear solver ma57.

Number of nonzeros in equality constraint Jacobian...:       48
Number of nonzeros in inequality constraint Jacobian.:   247500
Number of nonzeros in Lagrangian Hessian.............:       50

Total number of variables............................:       50
                     variables with only lower bounds:        0
                variables with lower and upper bounds:       50
                     variables with only upper bounds:        0
Total number of equality constraints.................:       25
Total number of inequality constraints...............:   125000
        inequality constraints with only lower bounds:        0
   inequality constraints with lower and upper bounds:   125000
        inequality constraints with only upper bounds:        0

iter    objective    inf_pr   inf_du lg(mu)  ||d||  lg(rg) alpha_du alpha_pr  ls
   0  6.1996276e+01 0.00e+00 1.99e+00  -1.0 0.00e+00    -  0.00e+00 0.00e+00   0
   1  5.8338934e+01 2.54e-09 2.97e-13  -1.0 9.80e-02    -  1.00e+00 1.00e+00f  1
   2  5.1882111e+01 1.54e-10 7.32e+00  -1.7 1.78e-01    -  4.06e-01 1.00e+00f  1
   3  4.4472551e+01 1.93e-10 3.56e-13  -1.7 2.11e-01    -  1.00e+00 1.00e+00f  1
   4  4.4158168e+01 2.36e-12 1.10e-03  -3.8 1.18e-02    -  9.83e-01 1.00e+00f  1
   5  3.4417272e+01 2.49e-11 3.41e-04  -5.7 4.48e-01    -  5.43e-01 1.00e+00f  1
   6  1.3505295e+01 6.24e-11 1.29e-04  -5.7 7.29e-01    -  5.37e-01 1.00e+00f  1
   7  2.3392694e+00 3.68e-11 6.83e-05  -5.7 8.82e-01    -  6.35e-01 9.77e-01f  1
   8  4.1309693e-01 7.23e-12 1.45e-01  -5.7 9.09e-02    -  1.70e-01 1.00e+00f  1
   9  2.4526330e-01 5.91e-13 5.76e-14  -5.7 1.62e-02    -  1.00e+00 1.00e+00f  1
iter    objective    inf_pr   inf_du lg(mu)  ||d||  lg(rg) alpha_du alpha_pr  ls
  10  2.2938529e-01 4.44e-14 6.09e-14  -5.7 2.54e-03    -  1.00e+00 1.00e+00f  1
  11  1.8950509e-03 1.54e-13 8.51e-09  -8.6 9.16e-03    -  9.97e-01 1.00e+00f  1
  12  1.1348237e-04 9.30e-16 4.89e-14  -9.0 1.10e-04    -  1.00e+00 1.00e+00f  1

Number of Iterations....: 12

                                   (scaled)                 (unscaled)
Objective...............:   1.1348237180704238e-04    1.1348237180704238e-04
Dual infeasibility......:   4.8919236995845656e-14    4.8919236995845656e-14
Constraint violation....:   9.2970336290632005e-16    9.2970336290632005e-16
Complementarity.........:   9.1349772191192446e-10    9.1349772191192446e-10
Overall NLP error.......:   9.1349772191192446e-10    9.1349772191192446e-10


Number of objective function evaluations             = 13
Number of objective gradient evaluations             = 13
Number of equality constraint evaluations            = 13
Number of inequality constraint evaluations          = 13
Number of equality constraint Jacobian evaluations   = 13
Number of inequality constraint Jacobian evaluations = 13
Number of Lagrangian Hessian evaluations             = 12
Total CPU secs in IPOPT (w/o function evaluations)   =      2.410
Total CPU secs in NLP function evaluations           =      0.340

EXIT: Optimal Solution Found.

************************ CUTEst statistics ************************


 Package used            :  IPOPT
 Problem                 :  DEGENQP   
 # variables             =              50
 # constraints           =          125025
 # objective functions   =        0.2700000E+02
 # objective gradients   =        0.1400000E+02
 # objective Hessians    =        0.1300000E+02
 # Hessian-vector prdct  =        0.0000000E+00
 # constraints functions =        0.2800000E+02
 # constraints gradients =        0.1500000E+02
 # constraints Hessians  =        0.1300000E+02
 Exit code               =               0
 Final f                 =   0.1134824E-03
 Set up time             =            0.36 seconds
 Solve time              =            6.31 seconds


******************************************************************

System Time =       2.0460000038 s.
